c Lingeling SAT Solver
c 
c Version azf 92032848c138b2f33629ad24394d60a3787a1046
c 
c Copyright (C) 2010-2014 Armin Biere JKU Linz Austria.
c All rights reserved.
c 
c released Don Mai 22 22:08:00 CEST 2014
c compiled Mon Oct  6 05:55:43 PDT 2014
c 
c gcc (Ubuntu 4.8.2-19ubuntu1) 4.8.2
c -Wall -O3 -DNDBLSCR -DNLGLOG -DNDEBUG -DNCHKSOL -DNLGLPICOSAT -DNLGLDRUPLIG
c -DNLGLYALSAT
c Linux ubuntu 3.13.0-32-generic x86_64
c 
c reading input file benchmark-sat/translations/gc-le450_15a-13.cnf
c no embedded options
c found 'p cnf 5850 141734' header
c read 5850 variables, 141734 clauses, 288418 literals in 0.00 seconds
c 
c  seconds         irredundant          redundant clauses agility   height
c          variables clauses conflicts large ternary binary    glue         MB
c 
c S    0.0    5850   141734         0       0      0     0   0  0.0   0.0    5
c P    1.0    5364   106105      1000     855      0 29509   4 16.4 166.1    5
c P    2.0    5364   106105      1000     855      0 29509   4 16.4 166.1    6
c P    5.0    5364   106105      1000     855      0 29509   4 16.4 166.1    5
c S   10.0    5359   106100     93572   11159      0 29449   5 19.7  35.3   11
c S   20.0    5359   106088    331582   25700      0 29449   4 28.6  41.1   13
c S   30.0    5359   106088    534121   25549      0 29449   4 31.3  44.2   17
c S   40.0    5339   106032    733598   33133      0 29359   5 31.8  45.2   19
c S   50.0    5339   106032    923096   41692      0 29359   5 32.2  45.4   25
c S   60.0    5339   106032   1102265   31938      0 29359   4 32.1  45.2   25
c S  120.0    5339   106032   2087459   67226      0 29359   4 32.6  45.1   45
c S  180.0    5339   106032   2834711   76757      0 29359   5 31.8  44.0   39
c S  240.1    5339   106032   3655037   93145      0 29359   5 30.8  43.1   59
c S  300.0    5339   106032   4104112   61155      0 29359   5 30.3  42.6   51
c S  600.0    5339   106032   6681105  112869      0 29359   4 31.9  43.3   96
c S  900.0    5339   106032   8938289  150217      0 29359   5 33.1  44.5  107
